sat
(:max-memory         18.42
 :memory             18.33
 :nlsat-arith-var    3
 :nlsat-atoms        9
 :nlsat-bool-var     1
 :nlsat-clauses      7
 :nlsat-propagations 6
 :nlsat-stages       4
 :num-allocs         50708
 :rlimit-count       1587
 :time               0.00
 :total-time         0.01)
